zaligvinder/models/DRE/data3/10151.smt2
(declare-fun x () String)

(assert (str.in.re x (re.union  (re.++  (str.to.re "\x4e01") (re.++ (re.opt  (str.to.re "\x4e02") )  (str.to.re "\x4e03")))  (re.++  (str.to.re "\x4e04") (re.++  (str.to.re "\x4e05") (re.++  (str.to.re "\x4e06") (re.++  (str.to.re "\x4e07") (re.++ (re.*  (str.to.re "\x4e08") ) (re.++  (str.to.re "\x4e05") (re.++  (str.to.re "\x4e06") (re.++  (str.to.re "\x4e09") (re.++ (re.*  (str.to.re "\x4e08") ) (re.++  (str.to.re "\x4e05") (re.++  (str.to.re "\x4e0a") (re.++  (str.to.re "\x4e0b") (re.++ (re.*  (str.to.re "\x4e08") ) (re.++  (str.to.re "\x4e05") (re.++  (str.to.re "\x4e06") (re.++  (str.to.re "\x4e0c") (re.++ (re.*  (str.to.re "\x4e08") ) (re.++  (str.to.re "\x4e05") (re.++  (str.to.re "\x4e06") (re.++  (str.to.re "\x4e0c") (re.++ (re.*  (str.to.re "\x4e08") ) (re.++  (str.to.re "\x4e05") (re.++  (str.to.re "\x4e06") (re.++  (str.to.re "\x4e0d") (re.++  (str.to.re "\x4e0e") (re.++  (str.to.re "\x4e0f") (re.++  (str.to.re "\x4e10") (re.++ (re.*  (str.to.re "\x4e08") ) (re.++  (str.to.re "\x4e05") (re.++  (str.to.re "\x4e06") (re.++  (str.to.re "\x4e11") (re.++  (str.to.re "\x4e0e") (re.++  (str.to.re "\x4e0f") (re.++ (re.*  (str.to.re "\x4e08") ) (re.++  (str.to.re "\x4e05") (re.++  (str.to.re "\x4e12") (re.++  (str.to.re "\x4e0e") (re.++  (str.to.re "\x4e0d") (re.++  (str.to.re "\x4e13") (re.++  (str.to.re "\x4e14") (re.++ (re.*  (str.to.re "\x4e08") ) (re.++  (str.to.re "\x4e05") (re.++  (str.to.re "\x4e12") (re.++  (str.to.re "\x4e0e") (re.++  (str.to.re "\x4e0d") (re.++  (str.to.re "\x4e13") (re.++ (re.*  (str.to.re "\x4e08") ) (re.++  (str.to.re "\x4e05") (re.++  (str.to.re "\x4e12") (re.++  (str.to.re "\x4e0e") (re.++  (str.to.re "\x4e0d") (re.++  (str.to.re "\x4e13") (re.++ (re.*  (str.to.re "\x4e08") ) (re.++  (str.to.re "\x4e05") (re.++  (str.to.re "\x4e12") (re.++  (str.to.re "\x4e0d") (re.++  (str.to.re "\x4e13") (re.++  (str.to.re "\x4e15") (re.++ (re.*  (str.to.re "\x4e08") ) (re.++  (str.to.re "\x4e05") (re.++  (str.to.re "\x4e12") (re.++  (str.to.re "\x4e0d") (re.++  (str.to.re "\x4e13") (re.++ (re.*  (str.to.re "\x4e08") ) (re.++  (str.to.re "\x4e05") (re.++  (str.to.re "\x4e12") (re.++  (str.to.re "\x4e0d") (re.++  (str.to.re "\x4e13") (re.++ (re.*  (str.to.re "\x4e08") ) (re.++  (str.to.re "\x4e05") (re.++  (str.to.re "\x4e12") (re.++  (str.to.re "\x4e0d") (re.++  (str.to.re "\x4e13") (re.++ (re.*  (str.to.re "\x4e08") ) (re.++  (str.to.re "\x4e05") (re.++  (str.to.re "\x4e12") (re.++  (str.to.re "\x4e0d") (re.++  (str.to.re "\x4e13") (re.++ (re.*  (str.to.re "\x4e08") ) (re.++  (str.to.re "\x4e05") (re.++  (str.to.re "\x4e12") (re.++  (str.to.re "\x4e0d") (re.++  (str.to.re "\x4e13") (re.++ (re.*  (str.to.re "\x4e08") ) (re.++  (str.to.re "\x4e05") (re.++  (str.to.re "\x4e12") (re.++  (str.to.re "\x4e0e") (re.++  (str.to.re "\x4e11") (re.++  (str.to.re "\x4e16") (re.++  (str.to.re "\x4e14") (re.++ (re.*  (str.to.re "\x4e08") ) (re.++  (str.to.re "\x4e05") (re.++  (str.to.re "\x4e12") (re.++  (str.to.re "\x4e0e") (re.++  (str.to.re "\x4e11") (re.++  (str.to.re "\x4e16") (re.++ (re.*  (str.to.re "\x4e08") ) (re.++  (str.to.re "\x4e05") (re.++  (str.to.re "\x4e12") (re.++  (str.to.re "\x4e0e") (re.++  (str.to.re "\x4e11") (re.++  (str.to.re "\x4e16") (re.++ (re.*  (str.to.re "\x4e08") ) (re.++  (str.to.re "\x4e05") (re.++  (str.to.re "\x4e12") (re.++  (str.to.re "\x4e11") (re.++  (str.to.re "\x4e16") (re.++  (str.to.re "\x4e15") (re.++ (re.*  (str.to.re "\x4e08") ) (re.++  (str.to.re "\x4e05") (re.++  (str.to.re "\x4e12") (re.++  (str.to.re "\x4e11") (re.++  (str.to.re "\x4e16") (re.++ (re.*  (str.to.re "\x4e08") ) (re.++  (str.to.re "\x4e05") (re.++  (str.to.re "\x4e12") (re.++  (str.to.re "\x4e11") (re.++  (str.to.re "\x4e16") (re.++ (re.*  (str.to.re "\x4e08") ) (re.++  (str.to.re "\x4e05") (re.++  (str.to.re "\x4e12") (re.++  (str.to.re "\x4e11") (re.++  (str.to.re "\x4e16") (re.++ (re.*  (str.to.re "\x4e08") ) (re.++  (str.to.re "\x4e05") (re.++  (str.to.re "\x4e12") (re.++  (str.to.re "\x4e11") (re.++  (str.to.re "\x4e16") (re.*  (str.to.re "\x4e08") ))))))))))))))))))))))))))))))))))))))))))))))))))))))))))))))))))))))))))))))))))))))))))))))))))))))))))))))))))))))))))))))))))))
(assert (str.in.re x (re.++  (str.to.re "\x4e01") (re.++  (str.to.re "\x4e01") (re.++  (str.to.re "\x4e02") (re.++  (str.to.re "\x4e03") (re.++ (re.*  (str.to.re "\x4e04") ) (re.++  (str.to.re "\x4e01") (re.++  (str.to.re "\x4e02") (re.++  (str.to.re "\x4e03") (re.++ (re.*  (str.to.re "\x4e04") ) (re.++  (str.to.re "\x4e01") (re.++  (str.to.re "\x4e02") (re.++  (str.to.re "\x4e03") (re.++ (re.*  (str.to.re "\x4e04") ) (re.++  (str.to.re "\x4e01") (re.++  (str.to.re "\x4e02") (re.++  (str.to.re "\x4e03") (re.++ (re.*  (str.to.re "\x4e04") ) (re.++  (str.to.re "\x4e01") (re.++  (str.to.re "\x4e02") (re.++  (str.to.re "\x4e03") (re.++ (re.*  (str.to.re "\x4e04") ) (re.++  (str.to.re "\x4e01") (re.++  (str.to.re "\x4e02") (re.++  (str.to.re "\x4e05") (re.++  (str.to.re "\x4e03") (re.++ (re.*  (str.to.re "\x4e04") ) (re.++  (str.to.re "\x4e01") (re.++  (str.to.re "\x4e02") (re.++  (str.to.re "\x4e03") (re.++  (str.to.re "\x4e03") (re.++ (re.*  (str.to.re "\x4e04") ) (re.++  (str.to.re "\x4e01") (re.++  (str.to.re "\x4e02") (re.++  (str.to.re "\x4e03") (re.++  (str.to.re "\x4e03") (re.++ (re.*  (str.to.re "\x4e04") ) (re.++  (str.to.re "\x4e01") (re.++  (str.to.re "\x4e02") (re.++  (str.to.re "\x4e03") (re.++  (str.to.re "\x4e03") (re.++ (re.*  (str.to.re "\x4e04") ) (re.++  (str.to.re "\x4e01") (re.++  (str.to.re "\x4e02") (re.++  (str.to.re "\x4e03") (re.++ (re.*  (str.to.re "\x4e04") ) (re.++  (str.to.re "\x4e01") (re.++  (str.to.re "\x4e02") (re.++  (str.to.re "\x4e03") (re.++ (re.*  (str.to.re "\x4e04") ) (re.++  (str.to.re "\x4e01") (re.++  (str.to.re "\x4e02") (re.++  (str.to.re "\x4e03") (re.++  (str.to.re "\x4e03") (re.++ (re.*  (str.to.re "\x4e04") ) (re.++  (str.to.re "\x4e01") (re.++  (str.to.re "\x4e02") (re.++  (str.to.re "\x4e03") (re.++  (str.to.re "\x4e03") (re.++ (re.*  (str.to.re "\x4e04") ) (re.++  (str.to.re "\x4e01") (re.++  (str.to.re "\x4e02") (re.++  (str.to.re "\x4e03") (re.++  (str.to.re "\x4e03") (re.++ (re.*  (str.to.re "\x4e04") ) (re.++  (str.to.re "\x4e01") (re.++  (str.to.re "\x4e02") (re.++  (str.to.re "\x4e03") (re.++  (str.to.re "\x4e03") (re.++ (re.*  (str.to.re "\x4e04") ) (re.++  (str.to.re "\x4e01") (re.++  (str.to.re "\x4e02") (re.++  (str.to.re "\x4e03") (re.++  (str.to.re "\x4e03") (re.++ (re.*  (str.to.re "\x4e04") ) (re.++  (str.to.re "\x4e01") (re.++  (str.to.re "\x4e02") (re.++  (str.to.re "\x4e03") (re.++ (re.*  (str.to.re "\x4e04") ) (re.++  (str.to.re "\x4e01") (re.++  (str.to.re "\x4e02") (re.++  (str.to.re "\x4e03") (re.++  (str.to.re "\x4e03") (re.++ (re.*  (str.to.re "\x4e04") ) (re.++  (str.to.re "\x4e01") (re.++  (str.to.re "\x4e02") (re.++  (str.to.re "\x4e03") (re.++  (str.to.re "\x4e03") (re.++ (re.*  (str.to.re "\x4e04") ) (re.++  (str.to.re "\x4e01") (re.++  (str.to.re "\x4e02") (re.++  (str.to.re "\x4e03") (re.++  (str.to.re "\x4e03") (re.++ (re.*  (str.to.re "\x4e04") ) (re.++  (str.to.re "\x4e01") (re.++  (str.to.re "\x4e02") (re.++  (str.to.re "\x4e03") (re.++ (re.*  (str.to.re "\x4e04") ) (re.++  (str.to.re "\x4e01") (re.++  (str.to.re "\x4e02") (re.++  (str.to.re "\x4e03") (re.++ (re.*  (str.to.re "\x4e04") ) (re.++  (str.to.re "\x4e01") (re.++  (str.to.re "\x4e02") (re.++  (str.to.re "\x4e03") (re.++ (re.*  (str.to.re "\x4e04") ) (re.++  (str.to.re "\x4e01") (re.++  (str.to.re "\x4e02") (re.++  (str.to.re "\x4e03") (re.++ (re.*  (str.to.re "\x4e04") ) (re.++  (str.to.re "\x4e01") (re.++  (str.to.re "\x4e02") (re.++  (str.to.re "\x4e03") (re.++ (re.*  (str.to.re "\x4e04") ) (re.++  (str.to.re "\x4e01") (re.++  (str.to.re "\x4e02") (re.++  (str.to.re "\x4e03") (re.++ (re.*  (str.to.re "\x4e04") ) (re.++  (str.to.re "\x4e01") (re.++  (str.to.re "\x4e02") (re.++  (str.to.re "\x4e03") (re.++ (re.*  (str.to.re "\x4e04") ) (re.++  (str.to.re "\x4e01") (re.++  (str.to.re "\x4e02") (re.++ (re.opt  (str.to.re "\x4e06") ) (re.++  (str.to.re "\x4e03") (re.++ (re.*  (str.to.re "\x4e04") ) (re.++  (str.to.re "\x4e01") (re.++  (str.to.re "\x4e02") (re.++ (re.opt  (str.to.re "\x4e06") ) (re.++  (str.to.re "\x4e03") (re.++ (re.*  (str.to.re "\x4e04") ) (re.++  (str.to.re "\x4e01") (re.++  (str.to.re "\x4e02") (re.++  (str.to.re "\x4e03") (re.++ (re.*  (str.to.re "\x4e04") ) (re.++  (str.to.re "\x4e01") (re.++  (str.to.re "\x4e02") (re.++  (str.to.re "\x4e03") (re.++ (re.*  (str.to.re "\x4e04") ) (re.++  (str.to.re "\x4e01") (re.++  (str.to.re "\x4e02") (re.++ (re.opt  (str.to.re "\x4e05") ) (re.++  (str.to.re "\x4e03") (re.++ (re.*  (str.to.re "\x4e04") ) (re.++  (str.to.re "\x4e01") (re.++  (str.to.re "\x4e02") (re.++ (re.opt  (str.to.re "\x4e05") ) (re.++  (str.to.re "\x4e03") (re.++ (re.*  (str.to.re "\x4e04") ) (re.++  (str.to.re "\x4e01") (re.++  (str.to.re "\x4e02") (re.++ (re.opt  (str.to.re "\x4e05") ) (re.++  (str.to.re "\x4e03") (re.++ (re.*  (str.to.re "\x4e04") ) (re.++  (str.to.re "\x4e01") (re.++  (str.to.re "\x4e02") (re.++ (re.opt  (str.to.re "\x4e05") ) (re.++  (str.to.re "\x4e03") (re.++ (re.*  (str.to.re "\x4e04") ) (re.++  (str.to.re "\x4e01") (re.++  (str.to.re "\x4e07") (re.++  (str.to.re "\x4e08") (re.++ (re.opt  (str.to.re "\x4e05") ) (re.++  (str.to.re "\x4e03") (re.++ (re.*  (str.to.re "\x4e04") ) (re.++  (str.to.re "\x4e01") (re.++  (str.to.re "\x4e02") (re.++  (str.to.re "\x4e08") (re.++ (re.opt  (str.to.re "\x4e05") ) (re.++  (str.to.re "\x4e03") (re.++ (re.*  (str.to.re "\x4e04") )  (str.to.re "\x4e09"))))))))))))))))))))))))))))))))))))))))))))))))))))))))))))))))))))))))))))))))))))))))))))))))))))))))))))))))))))))))))))))))))))))))))))))))))))))))))))))))))))))))))))))
(check-sat)
(get-model)