zaligvinder/models/DRE/data3/10151.txt
丁-0.丂-1?.七-2|丄-3.丅-4.丆-5.万-6.丈-7*.丅-8.丆-9.三-10.丈-11*.丅-12.上-13.下-14.丈-15*.丅-16.丆-17.丌-18.丈-19*.丅-20.丆-21.丌-22.丈-23*.丅-24.丆-25.不-26.与-27.丏-28.丐-29.丈-30*.丅-31.丆-32.丑-33.与-34.丏-35.丈-36*.丅-37.丒-38.与-39.不-40.专-41.且-42.丈-43*.丅-44.丒-45.与-46.不-47.专-48.丈-49*.丅-50.丒-51.与-52.不-53.专-54.丈-55*.丅-56.丒-57.不-58.专-59.丕-60.丈-61*.丅-62.丒-63.不-64.专-65.丈-66*.丅-67.丒-68.不-69.专-70.丈-71*.丅-72.丒-73.不-74.专-75.丈-76*.丅-77.丒-78.不-79.专-80.丈-81*.丅-82.丒-83.不-84.专-85.丈-86*.丅-87.丒-88.与-89.丑-90.世-91.且-92.丈-93*.丅-94.丒-95.与-96.丑-97.世-98.丈-99*.丅-100.丒-101.与-102.丑-103.世-104.丈-105*.丅-106.丒-107.丑-108.世-109.丕-110.丈-111*.丅-112.丒-113.丑-114.世-115.丈-116*.丅-117.丒-118.丑-119.世-120.丈-121*.丅-122.丒-123.丑-124.世-125.丈-126*.丅-127.丒-128.丑-129.世-130.丈-131*
丁-0.丁-1.丂-2.七-3.丄-4*.丁-5.丂-6.七-7.丄-8*.丁-9.丂-10.七-11.丄-12*.丁-13.丂-14.七-15.丄-16*.丁-17.丂-18.七-19.丄-20*.丁-21.丂-22.丅-23.七-24.丄-25*.丁-26.丂-27.七-28.七-29.丄-30*.丁-31.丂-32.七-33.七-34.丄-35*.丁-36.丂-37.七-38.七-39.丄-40*.丁-41.丂-42.七-43.丄-44*.丁-45.丂-46.七-47.丄-48*.丁-49.丂-50.七-51.七-52.丄-53*.丁-54.丂-55.七-56.七-57.丄-58*.丁-59.丂-60.七-61.七-62.丄-63*.丁-64.丂-65.七-66.七-67.丄-68*.丁-69.丂-70.七-71.七-72.丄-73*.丁-74.丂-75.七-76.丄-77*.丁-78.丂-79.七-80.七-81.丄-82*.丁-83.丂-84.七-85.七-86.丄-87*.丁-88.丂-89.七-90.七-91.丄-92*.丁-93.丂-94.七-95.丄-96*.丁-97.丂-98.七-99.丄-100*.丁-101.丂-102.七-103.丄-104*.丁-105.丂-106.七-107.丄-108*.丁-109.丂-110.七-111.丄-112*.丁-113.丂-114.七-115.丄-116*.丁-117.丂-118.七-119.丄-120*.丁-121.丂-122.丆-123?.七-124.丄-125*.丁-126.丂-127.丆-128?.七-129.丄-130*.丁-131.丂-132.七-133.丄-134*.丁-135.丂-136.七-137.丄-138*.丁-139.丂-140.丅-141?.七-142.丄-143*.丁-144.丂-145.丅-146?.七-147.丄-148*.丁-149.丂-150.丅-151?.七-152.丄-153*.丁-154.丂-155.丅-156?.七-157.丄-158*.丁-159.万-160.丈-161.丅-162?.七-163.丄-164*.丁-165.丂-166.丈-167.丅-168?.七-169.丄-170*.三-171
